; ./tricera/sv-comp-2020/./mixed/apache-get-tag.i.v+nlh-reducer.c-1_000.smt2
(set-logic HORN)

(declare-fun |inv_main161| ( Int Int Int Int Int Int Int Int Int Int Int Int Int Int ) Bool)
(declare-fun |inv_main37| ( Int Int Int Int Int Int Int Int Int Int Int Int ) Bool)
(declare-fun |inv_main181| ( Int Int Int Int Int Int Int Int Int Int Int Int Int Int Int ) Bool)
(declare-fun |inv_main89| ( Int Int Int Int Int Int Int Int Int Int Int Int Int Int Int Int Int Int Int Int Int ) Bool)
(declare-fun |inv_main126| ( Int Int Int Int Int Int Int Int Int Int Int Int Int Int Int Int ) Bool)
(declare-fun |inv_main45| ( Int Int Int Int Int Int Int Int Int Int Int Int Int Int ) Bool)
(declare-fun |inv_main71| ( Int Int Int Int Int Int Int Int Int Int Int Int Int Int Int Int ) Bool)
(declare-fun |inv_main4| ( Int Int Int Int Int Int ) Bool)
(declare-fun |inv_main78| ( Int Int Int Int Int Int Int Int Int Int Int Int Int Int Int Int Int Int ) Bool)
(declare-fun |inv_main96| ( Int Int Int Int Int Int Int Int Int Int Int Int Int Int Int Int Int Int Int Int Int Int Int ) Bool)
(declare-fun |inv_main99| ( Int Int Int Int Int Int Int Int Int Int Int Int Int Int Int Int Int Int Int ) Bool)
(declare-fun |CHC_COMP_FALSE| ( ) Bool)
(declare-fun |inv_main149| ( Int Int Int Int Int Int Int Int Int Int Int ) Bool)
(declare-fun |inv_main188| ( Int Int Int Int Int Int Int Int Int Int Int Int Int Int Int Int Int ) Bool)
(declare-fun |inv_main18| ( Int Int Int Int Int Int Int ) Bool)
(declare-fun |inv_main33| ( Int Int Int Int Int Int Int Int Int Int Int ) Bool)
(declare-fun |inv_main112| ( Int Int Int Int Int Int Int Int Int Int Int Int Int Int Int Int Int Int Int Int Int Int Int ) Bool)
(declare-fun |inv_main26| ( Int Int Int Int Int Int Int Int Int ) Bool)
(declare-fun |inv_main146| ( Int Int Int Int Int Int Int Int Int Int Int ) Bool)
(declare-fun |inv_main105| ( Int Int Int Int Int Int Int Int Int Int Int Int Int Int Int Int Int Int Int Int Int ) Bool)
(declare-fun |inv_main52| ( Int Int Int Int Int Int Int Int Int Int Int Int Int Int Int Int ) Bool)
(declare-fun |inv_main133| ( Int Int Int Int Int Int Int Int Int Int Int Int Int Int Int Int Int Int ) Bool)
(declare-fun |inv_main168| ( Int Int Int Int Int Int Int Int Int Int Int Int Int Int Int Int ) Bool)

(assert
  (forall ( (A Int) (B Int) (C Int) (D Int) (E Int) (F Int) ) 
    (=>
      (and
        (and (= E 0) (= C 0) (= B 0) (= F 0))
      )
      (inv_main4 E B F C A D)
    )
  )
)
(assert
  (forall ( (A Int) (B Int) (C Int) (D Int) (E Int) (F Int) (G Int) (H Int) (I Int) (J Int) (K Int) (L Int) (M Int) (N Int) (O Int) (P Int) (Q Int) (R Int) (S Int) (T Int) (U Int) (V Int) (W Int) (X Int) (Y Int) (Z Int) (v_26 Int) ) 
    (=>
      (and
        (inv_main149 R Q B I M F L W K V D)
        (let ((a!1 (or (and (<= (- 1) F) (= N 1)) (and (not (<= (- 1) F)) (= N 0)))))
  (and (= S E)
       (= P I)
       (= O W)
       (= N 0)
       (= J F)
       (= H R)
       (= G K)
       (not (= F (+ (- 1) M)))
       (= E 0)
       (= C V)
       (= A I)
       (= Z B)
       (= Y M)
       (= X Q)
       (= U D)
       a!1
       (= T (+ 1 F))
       (= v_26 N)))
      )
      (inv_main181 H X Z A Y T P O G C U J S N v_26)
    )
  )
)
(assert
  (forall ( (A Int) (B Int) (C Int) (D Int) (E Int) (F Int) (G Int) (H Int) (I Int) (J Int) (K Int) (L Int) (M Int) (N Int) (O Int) (P Int) (Q Int) (R Int) (S Int) (T Int) (U Int) (V Int) (W Int) (X Int) (Y Int) (Z Int) (A1 Int) (B1 Int) (C1 Int) (v_29 Int) ) 
    (=>
      (and
        (inv_main37 G B1 U M P S Q B D R H X)
        (let ((a!1 (or (and (<= 0 S) (= V 1)) (and (not (<= 0 S)) (= V 0)))))
  (and (= A S)
       (= W G)
       (= V 0)
       (= T D)
       (not (= S P))
       (= O 0)
       (= N B1)
       (= L Q)
       (= K B)
       (= J U)
       (not (= I 0))
       (= F I)
       (= E O)
       (= C1 M)
       (= A1 X)
       (= Z H)
       (= Y R)
       a!1
       (= C P)
       (= v_29 V)))
      )
      (inv_main126 W N J C1 C A L K T Y Z A1 E F V v_29)
    )
  )
)
(assert
  (forall ( (A Int) (B Int) (C Int) (D Int) (E Int) (F Int) (G Int) (H Int) (I Int) (J Int) (K Int) (L Int) (M Int) (N Int) (O Int) (P Int) (Q Int) (R Int) (S Int) (T Int) (U Int) (V Int) (W Int) (X Int) (Y Int) (Z Int) (A1 Int) (B1 Int) (C1 Int) (D1 Int) (E1 Int) (F1 Int) (G1 Int) (H1 Int) (I1 Int) (J1 Int) (K1 Int) (L1 Int) (M1 Int) (N1 Int) (O1 Int) (P1 Int) (Q1 Int) (R1 Int) (S1 Int) (T1 Int) (U1 Int) (V1 Int) (W1 Int) (X1 Int) (Y1 Int) (Z1 Int) (A2 Int) (B2 Int) (C2 Int) (D2 Int) (E2 Int) (F2 Int) (G2 Int) (H2 Int) (I2 Int) (J2 Int) (K2 Int) (L2 Int) (M2 Int) (N2 Int) (v_66 Int) ) 
    (=>
      (and
        (inv_main37 A A1 Z1 P R1 O L2 D U1 K1 N2 R)
        (let ((a!1 (or (and (not (<= (- 1) K)) (= H2 0)) (and (<= (- 1) K) (= H2 1))))
      (a!2 (and (<= 0 (+ J (* (- 1) X))) (= Q1 1)))
      (a!3 (not (<= 0 (+ J (* (- 1) X)))))
      (a!4 (or (and (<= 0 O) (= P1 1)) (and (not (<= 0 O)) (= P1 0)))))
  (and (= I1 P)
       (= H1 (+ 1 K))
       (= G1 Y1)
       (= F1 L2)
       (= E1 C2)
       (= D1 B)
       (= C1 A)
       (= B1 N2)
       (= Z V)
       (= Y H)
       (= X O)
       (= W K)
       (= V N1)
       (= U Q1)
       (= T R)
       (= S M)
       (= Q J1)
       (not (= O R1))
       (= N I1)
       (= M B2)
       (= L D2)
       (= K (+ (- 1) J1))
       (= K X)
       (= J R1)
       (= I W1)
       (= H S1)
       (= G V1)
       (= F Y)
       (= E P1)
       (= C Q1)
       (= B F2)
       (= N1 D)
       (= M1 C1)
       (= L1 A2)
       (= H2 0)
       (= G2 E)
       (not (= F2 0))
       (= E2 M1)
       (= D2 K1)
       (= C2 A1)
       (= B2 U1)
       (= A2 T)
       (= Y1 P1)
       (= X1 F1)
       (= W1 B1)
       (= V1 Z1)
       (= T1 N)
       (not (= S1 0))
       (not (= Q1 0))
       (not (= P1 0))
       (= O1 E1)
       (= M2 L)
       (= K2 D1)
       (= J2 G)
       (= I2 X1)
       a!1
       (or a!2 (and a!3 (= Q1 0)))
       a!4
       (= J1 J)
       (= v_66 H2)))
      )
      (inv_main89 E2 O1 J2 T1 Q H1 I2 Z S M2 I L1 F K2 G1 G2 C U W H2 v_66)
    )
  )
)
(assert
  (forall ( (A Int) (B Int) (C Int) (D Int) (E Int) (F Int) (G Int) (H Int) (I Int) (J Int) (K Int) (L Int) (M Int) (N Int) (O Int) (P Int) (Q Int) (R Int) (S Int) (T Int) (U Int) (V Int) (W Int) (X Int) (v_24 Int) ) 
    (=>
      (and
        (inv_main149 V T O H A I U E X D G)
        (let ((a!1 (or (and (<= (- 1) I) (= Q 1)) (and (not (<= (- 1) I)) (= Q 0)))))
  (and (= Q 0)
       (= P G)
       (= N H)
       (= M (+ 1 I))
       (= L I)
       (= K V)
       (= J O)
       (= I (+ (- 1) A))
       (= F A)
       (= C E)
       (= B X)
       (= W D)
       (= S H)
       a!1
       (= R T)
       (= v_24 Q)))
      )
      (inv_main161 K R J N F M S C B W P L Q v_24)
    )
  )
)
(assert
  (forall ( (A Int) (B Int) (C Int) (D Int) (E Int) (F Int) (G Int) (H Int) (I Int) (J Int) (K Int) (L Int) (M Int) (N Int) (O Int) (v_15 Int) ) 
    (=>
      (and
        (inv_main18 M G H F B L D)
        (let ((a!1 (or (and (<= 0 L) (= N 1)) (and (not (<= 0 L)) (= N 0)))))
  (and (= E F)
       (= C M)
       (= A H)
       (= O G)
       (= N 0)
       (= K G)
       (= J B)
       a!1
       (= I L)
       (= v_15 N)))
      )
      (inv_main26 C K A E J I O N v_15)
    )
  )
)
(assert
  (forall ( (A Int) (B Int) (C Int) (D Int) (E Int) (F Int) (G Int) (H Int) (I Int) (J Int) (K Int) (L Int) (M Int) (N Int) (O Int) (P Int) (Q Int) (R Int) (S Int) (T Int) (U Int) (V Int) (W Int) (X Int) (Y Int) (Z Int) (v_26 Int) ) 
    (=>
      (and
        (inv_main4 K Q S M A T)
        (let ((a!1 (and (<= 0 (+ C (* (- 1) X))) (= F 1)))
      (a!2 (not (<= 0 (+ C (* (- 1) X))))))
  (and (= R K)
       (= P I)
       (= O 0)
       (= N V)
       (= L W)
       (= J X)
       (= I O)
       (= H W)
       (= G S)
       (= F 0)
       (= E G)
       (= D R)
       (= C (+ (- 1) Y))
       (= B U)
       (= Z C)
       (= X 0)
       (= W 1)
       (not (= W 0))
       (= V M)
       (= U Q)
       (<= 1 Y)
       (or a!1 (and a!2 (= F 0)))
       (not (= 1 Y))
       (= v_26 F)))
      )
      (inv_main146 D B E N Z J P L H F v_26)
    )
  )
)
(assert
  (forall ( (A Int) (B Int) (C Int) (D Int) (E Int) (F Int) (G Int) (H Int) (I Int) (J Int) (K Int) (L Int) (M Int) (N Int) (O Int) (P Int) (Q Int) (R Int) (S Int) (T Int) (U Int) (V Int) (W Int) (X Int) (Y Int) (Z Int) (A1 Int) (B1 Int) (C1 Int) (D1 Int) (E1 Int) (F1 Int) (G1 Int) (H1 Int) (I1 Int) (J1 Int) (K1 Int) (L1 Int) (M1 Int) (N1 Int) (O1 Int) (P1 Int) (Q1 Int) (R1 Int) (S1 Int) (T1 Int) (U1 Int) (V1 Int) (W1 Int) (X1 Int) (Y1 Int) (Z1 Int) (A2 Int) (B2 Int) (C2 Int) (D2 Int) (E2 Int) (F2 Int) (G2 Int) (H2 Int) (I2 Int) (v_61 Int) ) 
    (=>
      (and
        (inv_main99 T1 Y X1 D E1 K1 Z1 B1 J L T P1 U G C2 G2 I2 H1 B)
        (let ((a!1 (not (<= 0 (+ L1 (* (- 1) R)))))
      (a!2 (and (<= 0 (+ L1 (* (- 1) R))) (= G1 1)))
      (a!3 (or (and (<= 0 K1) (= F 1)) (and (not (<= 0 K1)) (= F 0)))))
  (and (= D1 Z1)
       (= C1 G2)
       (= A1 C1)
       (= Z R)
       (= X F1)
       (= W N1)
       (= V M1)
       (= S L1)
       (= R K1)
       (= Q N)
       (= P P1)
       (= O I1)
       (= N B)
       (= M D2)
       (= K S1)
       (= I F)
       (= H J)
       (not (= F 0))
       (= E H)
       (= C X1)
       (= A G)
       (= I1 H1)
       (= G1 0)
       (= B2 U1)
       (= A2 F)
       (= Y1 O1)
       (= W1 V1)
       (= V1 T1)
       (= U1 T)
       (= S1 Y)
       (= R1 D1)
       (= Q1 P)
       (= O1 L)
       (= N1 B1)
       (= M1 C2)
       (= L1 E1)
       (= J1 F2)
       (= H2 C)
       (= F2 D)
       (= E2 A)
       (= D2 I2)
       (or (and a!1 (= G1 0)) a!2)
       a!3
       (= F1 U)
       (= v_61 G1)))
      )
      (inv_main112 W1 K H2 J1 S Z R1 W E Y1 B2 Q1 X E2 V A1 M O Q A2 I G1 v_61)
    )
  )
)
(assert
  (forall ( (A Int) (B Int) (C Int) (D Int) (E Int) (F Int) (G Int) (H Int) (I Int) (J Int) (K Int) (L Int) (M Int) (N Int) (O Int) (P Int) (Q Int) (R Int) (S Int) (T Int) (U Int) (V Int) (W Int) (X Int) (Y Int) (Z Int) (A1 Int) (B1 Int) (C1 Int) (D1 Int) (E1 Int) (F1 Int) (G1 Int) (H1 Int) (I1 Int) (J1 Int) (K1 Int) (L1 Int) (M1 Int) (N1 Int) (v_40 Int) ) 
    (=>
      (and
        (inv_main37 L I1 K1 Z F S F1 C L1 G C1 E)
        (let ((a!1 (and (<= 0 (+ J1 (* (- 1) M1))) (= K 1)))
      (a!2 (not (<= 0 (+ J1 (* (- 1) M1)))))
      (a!3 (or (and (<= 0 S) (= G1 1)) (and (not (<= 0 S)) (= G1 0)))))
  (and (= J B)
       (= I C1)
       (= H V)
       (= D I)
       (= B C)
       (= A N1)
       (= N Z)
       (= M I1)
       (= H1 G1)
       (not (= G1 0))
       (= E1 J1)
       (= D1 B1)
       (= B1 L1)
       (= A1 W)
       (= Y G1)
       (= X M)
       (= W L)
       (= V K1)
       (= U M1)
       (= T F1)
       (= S F)
       (= R O)
       (= Q N)
       (= P T)
       (= O E)
       (= N1 G)
       (= M1 S)
       (= J1 F)
       (or a!1 (and a!2 (= K 0)))
       a!3
       (= K 0)
       (= v_40 K)))
      )
      (inv_main52 A1 X H Q E1 U P J D1 A D R H1 Y K v_40)
    )
  )
)
(assert
  (forall ( (A Int) (B Int) (C Int) (D Int) (E Int) (F Int) (G Int) (H Int) (I Int) (J Int) (K Int) (L Int) (M Int) (N Int) (O Int) (P Int) (Q Int) (R Int) (S Int) (T Int) (U Int) (V Int) (W Int) (X Int) (Y Int) (Z Int) (A1 Int) (B1 Int) (C1 Int) (D1 Int) (E1 Int) (F1 Int) (G1 Int) (H1 Int) (I1 Int) (J1 Int) (K1 Int) (L1 Int) (M1 Int) (N1 Int) (O1 Int) (P1 Int) (v_42 Int) ) 
    (=>
      (and
        (inv_main149 M1 V L1 G1 P1 B X M A K D1)
        (let ((a!1 (or (and (<= (- 1) B) (= F1 1)) (and (not (<= (- 1) B)) (= F1 0))))
      (a!2 (and (<= 0 (+ T (* (- 1) P))) (= U 1)))
      (a!3 (not (<= 0 (+ T (* (- 1) P))))))
  (and (= J 0)
       (= I O)
       (= H C1)
       (= G I1)
       (= F G1)
       (= E F)
       (= D M1)
       (= C A)
       (not (= B (+ (- 1) P1)))
       (= P (+ 1 B))
       (= O M)
       (= N D)
       (= J1 L1)
       (= I1 G1)
       (= H1 B)
       (not (= F1 0))
       (= E1 T)
       (= C1 K)
       (= B1 J)
       (= A1 F1)
       (= Z H1)
       (= Y F1)
       (= W P)
       (= U 0)
       (= T P1)
       (= S D1)
       (= R O1)
       (= Q B1)
       (= O1 V)
       (= N1 C)
       (= K1 S)
       a!1
       (or a!2 (and a!3 (= U 0)))
       (= L J1)
       (= v_42 U)))
      )
      (inv_main188 N R L G E1 W E I N1 H K1 Z Q A1 Y U v_42)
    )
  )
)
(assert
  (forall ( (A Int) (B Int) (C Int) (D Int) (E Int) (F Int) (G Int) (H Int) (I Int) (J Int) (K Int) (L Int) (M Int) (N Int) (O Int) (P Int) (Q Int) (R Int) (S Int) (T Int) (U Int) (V Int) (W Int) (X Int) (Y Int) (Z Int) (A1 Int) (B1 Int) (C1 Int) (D1 Int) (E1 Int) (F1 Int) (G1 Int) (H1 Int) (I1 Int) (J1 Int) (K1 Int) (L1 Int) (M1 Int) (N1 Int) (O1 Int) (P1 Int) (Q1 Int) (R1 Int) (S1 Int) (T1 Int) (U1 Int) (V1 Int) (W1 Int) (X1 Int) (Y1 Int) (Z1 Int) (A2 Int) (B2 Int) (C2 Int) (D2 Int) (E2 Int) (F2 Int) (G2 Int) (H2 Int) (I2 Int) (J2 Int) (K2 Int) (L2 Int) (M2 Int) (N2 Int) (O2 Int) (P2 Int) (Q2 Int) (R2 Int) (S2 Int) (T2 Int) (U2 Int) (V2 Int) (W2 Int) (X2 Int) (Y2 Int) (Z2 Int) (A3 Int) (B3 Int) (C3 Int) (D3 Int) (E3 Int) (F3 Int) (G3 Int) (H3 Int) (I3 Int) (J3 Int) (v_88 Int) ) 
    (=>
      (and
        (inv_main37 G1 N G2 F2 C A3 Q U2 S2 T2 E2 R1)
        (let ((a!1 (or (and (<= (- 1) I1) (= D3 1)) (and (not (<= (- 1) I1)) (= D3 0))))
      (a!2 (and (<= 0 (+ J (* (- 1) K1))) (= V2 1)))
      (a!3 (not (<= 0 (+ J (* (- 1) K1)))))
      (a!4 (and (<= 0 (+ M2 (* (- 1) J1))) (= Q2 1)))
      (a!5 (not (<= 0 (+ M2 (* (- 1) J1)))))
      (a!6 (or (and (<= 0 A3) (= C2 1)) (and (not (<= 0 A3)) (= C2 0)))))
  (and (= U F3)
       (= T V)
       (= S M2)
       (= R T2)
       (= P B3)
       (= O N)
       (= M G3)
       (= L C1)
       (= K L1)
       (= J S)
       (= I W)
       (= H D3)
       (= G L2)
       (= F U1)
       (= E U)
       (= D W1)
       (= B A)
       (= A O)
       (= D2 B)
       (not (= C2 0))
       (= B2 C3)
       (= A2 N2)
       (= Z1 E3)
       (= Y1 I)
       (= X1 H2)
       (= W1 U2)
       (= V1 S1)
       (= U1 X1)
       (= T1 M1)
       (= S1 X)
       (= Q1 G2)
       (= P1 N1)
       (= O1 Y1)
       (= N1 B2)
       (= M1 I2)
       (= L1 R1)
       (= K1 (+ 1 I1))
       (= J1 A3)
       (= I1 (+ (- 1) S))
       (= I1 J1)
       (= H1 K1)
       (= F1 L)
       (= E1 O2)
       (= D1 F2)
       (= C1 C2)
       (not (= B1 0))
       (= A1 V1)
       (= Z E2)
       (= Y J3)
       (= X Q)
       (= W Z2)
       (= J2 D1)
       (= I2 R)
       (= H2 G1)
       (not (= D3 0))
       (= C3 S2)
       (= B3 G)
       (not (= A3 C))
       (not (= Z2 0))
       (= Y2 P2)
       (= X2 A2)
       (= W2 D3)
       (= V2 0)
       (= R2 J)
       (not (= Q2 0))
       (= P2 D)
       (= O2 H3)
       (= N2 Z)
       (= M2 C)
       (= L2 B1)
       (= K2 Q2)
       (= J3 Q2)
       (= I3 K2)
       (= H3 Q1)
       (= G3 I1)
       (= F3 C2)
       (= E3 K)
       a!1
       (or a!2 (and a!3 (= V2 0)))
       (or a!4 (and a!5 (= Q2 0)))
       a!6
       (= V J2)
       (= v_88 V2)))
      )
      (inv_main96 F D2 E1 T R2 H1 A1 Y2 P1 T1 X2 Z1 P O1 E F1 Y I3 M H W2 V2 v_88)
    )
  )
)
(assert
  (forall ( (A Int) (B Int) (C Int) (D Int) (E Int) (F Int) (G Int) (H Int) (I Int) (J Int) (K Int) (L Int) (M Int) (v_13 Int) ) 
    (=>
      (and
        (inv_main149 A K E F C L D G J B I)
        (and (not (= L (+ (- 1) C))) (= H (+ 1 L)) (not (= M 0)) (= v_13 F))
      )
      (inv_main18 A M E F C H v_13)
    )
  )
)
(assert
  (forall ( (A Int) (B Int) (C Int) (D Int) (E Int) (F Int) (G Int) (H Int) (I Int) (J Int) (v_10 Int) ) 
    (=>
      (and
        (inv_main4 D E J A I H)
        (and (= B 0) (= G (+ (- 1) C)) (not (= F 0)) (<= 1 C) (not (= 1 C)) (= v_10 F))
      )
      (inv_main18 D F J A G B v_10)
    )
  )
)
(assert
  (forall ( (A Int) (B Int) (C Int) (D Int) (E Int) (F Int) (G Int) (H Int) (I Int) (J Int) (K Int) (L Int) (M Int) (N Int) (O Int) (P Int) (Q Int) (R Int) (S Int) (T Int) (U Int) (V Int) (W Int) (X Int) (Y Int) (Z Int) (A1 Int) (B1 Int) (C1 Int) (D1 Int) (E1 Int) (F1 Int) (G1 Int) (H1 Int) (I1 Int) (J1 Int) (K1 Int) (L1 Int) (M1 Int) (v_39 Int) ) 
    (=>
      (and
        (inv_main99 J Q H1 Z I1 M A H V L F K1 F1 D P G I Y U)
        (let ((a!1 (or (and (<= 0 M) (= X 1)) (and (not (<= 0 M)) (= X 0)))))
  (and (= C M)
       (= B Z)
       (= K U)
       (= G1 H)
       (= E1 L)
       (= D1 D)
       (= C1 J)
       (= B1 V)
       (= A1 P)
       (= X 0)
       (= W A)
       (= T F1)
       (= S I1)
       (= R I)
       (= O F)
       (= N G)
       (= M1 K1)
       (= L1 H1)
       (= J1 Y)
       a!1
       (= E Q)
       (= v_39 X)))
      )
      (inv_main105 C1 E L1 B S C W G1 B1 E1 O M1 T D1 A1 N R J1 K X v_39)
    )
  )
)
(assert
  (forall ( (A Int) (B Int) (C Int) (D Int) (E Int) (F Int) (G Int) (H Int) (I Int) (J Int) (K Int) (L Int) (M Int) (N Int) (O Int) (P Int) (Q Int) (R Int) (S Int) (T Int) (U Int) (V Int) (W Int) (X Int) (Y Int) (v_25 Int) ) 
    (=>
      (and
        (inv_main18 T Y O B C J R)
        (let ((a!1 (and (<= 0 (+ P (* (- 1) I))) (= X 1)))
      (a!2 (not (<= 0 (+ P (* (- 1) I)))))
      (a!3 (or (and (<= 0 J) (= V 1)) (and (not (<= 0 J)) (= V 0)))))
  (and (= Q Y)
       (= P C)
       (= N V)
       (= M V)
       (= L O)
       (= K Y)
       (= I J)
       (= H Q)
       (= G T)
       (= F K)
       (= E I)
       (= D P)
       (= A W)
       (= X 0)
       (= W B)
       (not (= V 0))
       (= U G)
       (or a!1 (and a!2 (= X 0)))
       a!3
       (= S L)
       (= v_25 X)))
      )
      (inv_main33 U H S A D E F N M X v_25)
    )
  )
)
(assert
  (forall ( (A Int) (B Int) (C Int) (D Int) (E Int) (F Int) (G Int) (H Int) (I Int) (J Int) (K Int) (L Int) (M Int) (N Int) (O Int) (P Int) (Q Int) (R Int) (S Int) (T Int) (U Int) (V Int) (W Int) (X Int) (Y Int) (Z Int) (A1 Int) (B1 Int) (C1 Int) (D1 Int) (E1 Int) (F1 Int) (G1 Int) (H1 Int) (I1 Int) (J1 Int) (K1 Int) (L1 Int) (M1 Int) (N1 Int) (O1 Int) (P1 Int) (Q1 Int) (R1 Int) (S1 Int) (T1 Int) (U1 Int) (v_47 Int) ) 
    (=>
      (and
        (inv_main37 Z S1 E1 U1 Q B F I1 G D1 N1 G1)
        (let ((a!1 (and (<= 0 (+ L1 (* (- 1) C))) (= A 1)))
      (a!2 (not (<= 0 (+ L1 (* (- 1) C)))))
      (a!3 (or (and (<= 0 B) (= M1 1)) (and (not (<= 0 B)) (= M1 0)))))
  (and (= P V)
       (not (= O (+ (- 1) A1)))
       (= O C)
       (= N X)
       (= M E)
       (= L F)
       (= K Y)
       (= J G1)
       (= I M1)
       (= H K1)
       (= E Z)
       (= D R)
       (= C B)
       (not (= B Q))
       (not (= A 0))
       (= U Q1)
       (not (= T 0))
       (= S L)
       (= O1 C1)
       (not (= M1 0))
       (= L1 Q)
       (= K1 U1)
       (= J1 T)
       (not (= H1 0))
       (= F1 M1)
       (= C1 I1)
       (= B1 J)
       (= A1 L1)
       (= Y G)
       (= X S1)
       (= W H1)
       (= V N1)
       (= T1 J1)
       (= R1 W)
       (= Q1 D1)
       (= P1 (+ 1 O))
       (or a!1 (and a!2 (= A 0)))
       a!3
       (= R E1)
       (= v_47 A)))
      )
      (inv_main99 M N D H A1 P1 S O1 K U P B1 R1 T1 I F1 A v_47 O)
    )
  )
)
(assert
  (forall ( (A Int) (B Int) (C Int) (D Int) (E Int) (F Int) (G Int) (H Int) (I Int) (J Int) (K Int) (L Int) (M Int) (N Int) (O Int) (P Int) (Q Int) (R Int) (S Int) ) 
    (=>
      (and
        (inv_main37 C B H A Q O D L P G E F)
        (and (= S 0) (not (= O Q)) (not (= M 0)))
      )
      (inv_main99 C B H A Q O D L P G E F M S R J K N I)
    )
  )
)
(assert
  (forall ( (A Int) (B Int) (C Int) (D Int) (E Int) (F Int) (G Int) (H Int) (I Int) (J Int) (K Int) (L Int) (M Int) (N Int) (O Int) (P Int) (Q Int) (R Int) (S Int) (T Int) ) 
    (=>
      (and
        (inv_main37 K H I R F Q S D G J L C)
        (and (= A 0) (not (= Q F)) (= B 0))
      )
      (inv_main99 K H I R F Q S D G J L C A E P O M T N)
    )
  )
)
(assert
  (forall ( (A Int) (B Int) (C Int) (D Int) (E Int) (F Int) (G Int) (H Int) (I Int) (J Int) (K Int) (L Int) (M Int) (N Int) (O Int) (P Int) (Q Int) (R Int) (S Int) (T Int) (U Int) (V Int) (W Int) (X Int) (Y Int) (Z Int) (A1 Int) (B1 Int) (C1 Int) (D1 Int) (E1 Int) (F1 Int) (G1 Int) (H1 Int) (I1 Int) (J1 Int) (K1 Int) (L1 Int) (M1 Int) (N1 Int) (O1 Int) (P1 Int) (Q1 Int) (R1 Int) (S1 Int) (T1 Int) (U1 Int) (V1 Int) (W1 Int) (X1 Int) (Y1 Int) (Z1 Int) (A2 Int) (B2 Int) (C2 Int) (D2 Int) (E2 Int) (F2 Int) (G2 Int) (H2 Int) (I2 Int) (J2 Int) ) 
    (=>
      (and
        (inv_main99 Q N1 I2 I R1 H1 B1 Y1 C1 O J2 E Y W1 K1 E1 Q1 X G1)
        (let ((a!1 (and (<= 0 (+ E2 (* (- 1) V))) (= T 1)))
      (a!2 (not (<= 0 (+ E2 (* (- 1) V)))))
      (a!3 (or (and (<= 0 H1) (= P1 1)) (and (not (<= 0 H1)) (= P1 0)))))
  (and (= D1 Y)
       (= A1 W1)
       (= Z I)
       (= W A1)
       (= V H1)
       (= U Y1)
       (not (= T 0))
       (= S A)
       (= R C1)
       (= P A2)
       (= N N1)
       (= M G2)
       (= L S1)
       (= K R)
       (= J E2)
       (= H C)
       (= G (+ 1 B))
       (= F Z)
       (= D O)
       (= C J2)
       (= B V)
       (= A G1)
       (= J1 D2)
       (= I1 K1)
       (= D2 E)
       (= C2 E1)
       (= B2 D1)
       (= A2 Q)
       (= Z1 U)
       (= X1 T1)
       (= V1 C2)
       (= U1 P1)
       (= T1 I2)
       (= S1 Q1)
       (not (= P1 0))
       (= O1 X)
       (= M1 I1)
       (= L1 D)
       (= H2 P1)
       (= G2 B1)
       (= F2 N)
       (= E2 R1)
       (or a!1 (and a!2 (= T 0)))
       a!3
       (= F1 O1)))
      )
      (inv_main37 P F2 X1 F J G M Z1 K L1 H J1)
    )
  )
)
(assert
  (forall ( (A Int) (B Int) (C Int) (D Int) (E Int) (F Int) (G Int) (H Int) (I Int) (J Int) (K Int) (L Int) (M Int) (N Int) (O Int) (P Int) (Q Int) (R Int) (S Int) (T Int) (U Int) (V Int) (W Int) (X Int) (Y Int) (Z Int) (v_26 Int) ) 
    (=>
      (and
        (inv_main18 U T D O L R Q)
        (let ((a!1 (and (<= 0 (+ A (* (- 1) F))) (= B 1)))
      (a!2 (not (<= 0 (+ A (* (- 1) F)))))
      (a!3 (or (and (<= 0 R) (= V 1)) (and (not (<= 0 R)) (= V 0)))))
  (and (= P T)
       (= N P)
       (= M V)
       (= K W)
       (= J (+ 1 Z))
       (= I D)
       (= H T)
       (= G V)
       (= F R)
       (= E X)
       (= C H)
       (not (= B 0))
       (= A L)
       (= Z F)
       (= Y A)
       (= X U)
       (= W O)
       (not (= V 0))
       (or a!1 (and a!2 (= B 0)))
       a!3
       (= S I)
       (= v_26 B)))
      )
      (inv_main37 E C S K Y J N M G B v_26 Z)
    )
  )
)
(assert
  (forall ( (A Int) (B Int) (C Int) (D Int) (E Int) (F Int) (G Int) (H Int) (I Int) (J Int) (K Int) (L Int) (M Int) (N Int) (O Int) (P Int) (Q Int) (R Int) (S Int) (T Int) (U Int) (V Int) (W Int) (X Int) (Y Int) (Z Int) (A1 Int) (B1 Int) (C1 Int) (D1 Int) (E1 Int) (F1 Int) (G1 Int) (H1 Int) (I1 Int) (J1 Int) (K1 Int) (L1 Int) (M1 Int) (v_39 Int) ) 
    (=>
      (and
        (inv_main149 A A1 U X C1 H1 R K1 E T D)
        (let ((a!1 (or (and (<= (- 1) H1) (= K 1)) (and (not (<= (- 1) H1)) (= K 0))))
      (a!2 (and (<= 0 (+ L (* (- 1) C))) (= H 1)))
      (a!3 (not (<= 0 (+ L (* (- 1) C))))))
  (and (= I A1)
       (= H 0)
       (= G D)
       (= F A)
       (= C (+ 1 H1))
       (= B K1)
       (= M K)
       (= L C1)
       (not (= K 0))
       (= G1 C)
       (= F1 G)
       (= E1 J1)
       (= D1 E)
       (= B1 X)
       (= Z B1)
       (= Y X)
       (= W O)
       (= V Y)
       (= S B)
       (= Q L)
       (= P J)
       (= O U)
       (= N D1)
       (= M1 F)
       (= L1 I)
       (= J1 T)
       (= I1 K)
       (= H1 (+ (- 1) C1))
       a!1
       (or a!2 (and a!3 (= H 0)))
       (= J H1)
       (= v_39 H)))
      )
      (inv_main168 M1 L1 W V Q G1 Z S N E1 F1 P I1 M H v_39)
    )
  )
)
(assert
  (forall ( (A Int) (B Int) (C Int) (D Int) (E Int) (F Int) (G Int) (H Int) (I Int) (J Int) (K Int) (L Int) (M Int) (N Int) (O Int) (P Int) (Q Int) (R Int) (S Int) (T Int) (U Int) (V Int) (W Int) (X Int) (Y Int) (Z Int) (A1 Int) (B1 Int) (C1 Int) (D1 Int) (E1 Int) (F1 Int) (G1 Int) (H1 Int) (I1 Int) (J1 Int) (K1 Int) (L1 Int) (M1 Int) (N1 Int) (O1 Int) (P1 Int) (Q1 Int) (R1 Int) (S1 Int) (T1 Int) (v_46 Int) ) 
    (=>
      (and
        (inv_main37 B T1 O I F A1 U D X N W C1)
        (let ((a!1 (and (<= 0 (+ M (* (- 1) J1))) (= H 1)))
      (a!2 (not (<= 0 (+ M (* (- 1) J1)))))
      (a!3 (or (and (<= 0 A1) (= O1 1)) (and (not (<= 0 A1)) (= O1 0)))))
  (and (= P Z)
       (= M F)
       (= L B)
       (= K C1)
       (= J C)
       (= H 0)
       (= G P1)
       (= E O)
       (= C 0)
       (= A X)
       (= T A)
       (= S I)
       (= R U)
       (= N1 H1)
       (= M1 E)
       (= L1 R)
       (= K1 O1)
       (= J1 A1)
       (= I1 B1)
       (= H1 N)
       (= G1 L)
       (not (= F1 0))
       (= E1 D)
       (= D1 J)
       (= B1 F1)
       (not (= A1 F))
       (= Z T1)
       (= Y J1)
       (= V K)
       (= S1 S)
       (= R1 M)
       (= Q1 E1)
       (= P1 W)
       (not (= O1 0))
       (or a!1 (and a!2 (= H 0)))
       a!3
       (= Q O1)
       (= v_46 H)))
      )
      (inv_main133 G1 P M1 S1 R1 Y L1 Q1 T N1 G V D1 I1 K1 Q H v_46)
    )
  )
)
(assert
  (forall ( (A Int) (B Int) (C Int) (D Int) (E Int) (F Int) (G Int) (H Int) (I Int) (J Int) (K Int) (L Int) (M Int) (N Int) (O Int) (P Int) (Q Int) (R Int) (S Int) (T Int) (U Int) (V Int) (W Int) (X Int) (Y Int) (Z Int) (A1 Int) (B1 Int) (C1 Int) (D1 Int) (E1 Int) (F1 Int) (G1 Int) (H1 Int) (I1 Int) (J1 Int) (K1 Int) (L1 Int) (M1 Int) (N1 Int) (O1 Int) (P1 Int) (Q1 Int) (R1 Int) (S1 Int) (T1 Int) (v_46 Int) ) 
    (=>
      (and
        (inv_main37 A A1 Z V G K R T1 F B1 L I1)
        (let ((a!1 (and (<= 0 (+ X (* (- 1) D1))) (= E 1)))
      (a!2 (not (<= 0 (+ X (* (- 1) D1)))))
      (a!3 (or (and (<= 0 K) (= L1 1)) (and (not (<= 0 K)) (= L1 0)))))
  (and (= P D1)
       (= O T1)
       (= N U)
       (= M L)
       (not (= K G))
       (= J K1)
       (= I B1)
       (= H I)
       (= E 0)
       (= D M)
       (not (= C 0))
       (= B V)
       (= T A)
       (= S J)
       (= N1 L1)
       (= M1 A1)
       (not (= L1 0))
       (not (= K1 0))
       (= J1 F1)
       (= H1 X)
       (= G1 B)
       (= F1 Z)
       (= E1 W)
       (= D1 K)
       (= C1 M1)
       (= Y F)
       (= X G)
       (= W I1)
       (= U C)
       (= S1 R)
       (= R1 S1)
       (= Q1 O)
       (= P1 L1)
       (= O1 T)
       (or a!1 (and a!2 (= E 0)))
       a!3
       (= Q Y)
       (= v_46 E)))
      )
      (inv_main78 O1 C1 J1 G1 H1 P R1 Q1 Q H D E1 N S P1 N1 E v_46)
    )
  )
)
(assert
  (forall ( (A Int) (B Int) (C Int) (D Int) (E Int) (F Int) (G Int) (H Int) (I Int) (J Int) (K Int) (L Int) (M Int) (N Int) (O Int) (P Int) (Q Int) (R Int) (S Int) (T Int) (U Int) (V Int) (W Int) (X Int) (Y Int) (Z Int) (A1 Int) (B1 Int) (C1 Int) (v_29 Int) ) 
    (=>
      (and
        (inv_main37 M A P R B G L K N E C1 A1)
        (let ((a!1 (or (and (<= 0 G) (= D 1)) (and (not (<= 0 G)) (= D 0)))))
  (and (not (= W 0))
       (= V W)
       (= U N)
       (= T M)
       (not (= S 0))
       (= Q A1)
       (= O S)
       (= J E)
       (= I K)
       (= H A)
       (not (= G B))
       (= F P)
       (= D 0)
       (= B1 G)
       (= Z C1)
       (= Y B)
       (= X R)
       a!1
       (= C L)
       (= v_29 D)))
      )
      (inv_main71 T H F X Y B1 C I U J Z Q O V D v_29)
    )
  )
)
(assert
  (forall ( (A Int) (B Int) (C Int) (D Int) (E Int) (F Int) (G Int) (H Int) (I Int) (J Int) (K Int) (L Int) (M Int) (N Int) (O Int) (P Int) (Q Int) (R Int) (S Int) (T Int) (U Int) (V Int) (W Int) (X Int) (Y Int) (Z Int) (A1 Int) (B1 Int) (C1 Int) (D1 Int) (E1 Int) (F1 Int) (G1 Int) (H1 Int) (I1 Int) (J1 Int) (K1 Int) (L1 Int) (M1 Int) (N1 Int) (O1 Int) (P1 Int) ) 
    (=>
      (and
        (inv_main149 Y E1 F E G1 M C1 J1 W D1 A)
        (let ((a!1 (or (and (<= (- 1) M) (= L1 1)) (and (not (<= (- 1) M)) (= L1 0))))
      (a!2 (and (<= 0 (+ M1 (* (- 1) S))) (= F1 1)))
      (a!3 (not (<= 0 (+ M1 (* (- 1) S))))))
  (and (= L W)
       (= K F)
       (= J J1)
       (= I K)
       (= H P1)
       (= G E1)
       (= D Q)
       (= C L1)
       (= B G)
       (= P L1)
       (= O N1)
       (= N R)
       (= I1 J)
       (= H1 A1)
       (not (= F1 0))
       (= B1 M1)
       (= A1 D1)
       (= Z S)
       (= X Y)
       (= V L)
       (= U H)
       (= T X)
       (= S (+ 1 M))
       (= R M)
       (= Q E)
       (= P1 0)
       (= O1 A)
       (= N1 E)
       (= M1 G1)
       (not (= L1 0))
       (= K1 O1)
       a!1
       (or a!2 (and a!3 (= F1 0)))
       (not (= M (+ (- 1) G1)))))
      )
      (inv_main149 T B I U B1 Z D I1 V H1 K1)
    )
  )
)
(assert
  (forall ( (A Int) (B Int) (C Int) (D Int) (E Int) (F Int) (G Int) (H Int) (I Int) (J Int) (K Int) (L Int) (M Int) (N Int) (O Int) (P Int) (Q Int) (R Int) (S Int) (T Int) (U Int) (V Int) (W Int) (X Int) (Y Int) (Z Int) (v_26 Int) (v_27 Int) ) 
    (=>
      (and
        (inv_main4 S H D R B Q)
        (let ((a!1 (and (<= 0 (+ T (* (- 1) O))) (= X 1)))
      (a!2 (not (<= 0 (+ T (* (- 1) O))))))
  (and (= T (+ (- 1) N))
       (= P D)
       (= O 0)
       (= M V)
       (= L C)
       (= K 0)
       (= J K)
       (= I J)
       (= G 1)
       (not (= G 0))
       (= F G)
       (= E O)
       (= C H)
       (= A G)
       (= Z U)
       (= Y P)
       (not (= X 0))
       (= W T)
       (= V R)
       (= U S)
       (<= 1 N)
       (or a!1 (and a!2 (= X 0)))
       (not (= 1 N))
       (= v_26 I)
       (= v_27 X)))
      )
      (inv_main149 Z L Y I W E v_26 F A X v_27)
    )
  )
)
(assert
  (forall ( (A Int) (B Int) (C Int) (D Int) (E Int) (F Int) (G Int) (H Int) (I Int) (J Int) (K Int) (L Int) (M Int) (N Int) (O Int) (P Int) (Q Int) (R Int) (S Int) (T Int) (U Int) (V Int) (W Int) (X Int) (Y Int) (v_25 Int) ) 
    (=>
      (and
        (inv_main37 T E Q C K G U F D P X V)
        (let ((a!1 (or (and (<= 0 G) (= O 1)) (and (not (<= 0 G)) (= O 0)))))
  (and (= R X)
       (= O 0)
       (= N P)
       (= M G)
       (= L D)
       (= J V)
       (= I E)
       (= H Q)
       (= G K)
       (= B K)
       (= A F)
       (= Y T)
       (= W U)
       a!1
       (= S C)
       (= v_25 O)))
      )
      (inv_main45 Y I H S B M W A L N R J O v_25)
    )
  )
)
(assert
  (forall ( (A Int) (B Int) (C Int) (D Int) (E Int) (F Int) (G Int) (H Int) (I Int) ) 
    (=>
      (and
        (inv_main26 E B H A D G C I F)
        true
      )
      CHC_COMP_FALSE
    )
  )
)
(assert
  (forall ( (A Int) (B Int) (C Int) (D Int) (E Int) (F Int) (G Int) (H Int) (I Int) (J Int) (K Int) ) 
    (=>
      (and
        (inv_main33 H K J D G F B E I A C)
        true
      )
      CHC_COMP_FALSE
    )
  )
)
(assert
  (forall ( (A Int) (B Int) (C Int) (D Int) (E Int) (F Int) (G Int) (H Int) (I Int) (J Int) (K Int) (L Int) (M Int) (N Int) ) 
    (=>
      (and
        (inv_main45 C A B E G N K H M D F I J L)
        true
      )
      CHC_COMP_FALSE
    )
  )
)
(assert
  (forall ( (A Int) (B Int) (C Int) (D Int) (E Int) (F Int) (G Int) (H Int) (I Int) (J Int) (K Int) (L Int) (M Int) (N Int) (O Int) (P Int) ) 
    (=>
      (and
        (inv_main52 J H L D C K P B F O E N G M A I)
        true
      )
      CHC_COMP_FALSE
    )
  )
)
(assert
  (forall ( (A Int) (B Int) (C Int) (D Int) (E Int) (F Int) (G Int) (H Int) (I Int) (J Int) (K Int) (L Int) (M Int) (N Int) (O Int) (P Int) ) 
    (=>
      (and
        (inv_main71 H G P L J A B D I C F M O E N K)
        true
      )
      CHC_COMP_FALSE
    )
  )
)
(assert
  (forall ( (A Int) (B Int) (C Int) (D Int) (E Int) (F Int) (G Int) (H Int) (I Int) (J Int) (K Int) (L Int) (M Int) (N Int) (O Int) (P Int) (Q Int) (R Int) ) 
    (=>
      (and
        (inv_main78 J D C N L P I H A E B K O Q F R M G)
        true
      )
      CHC_COMP_FALSE
    )
  )
)
(assert
  (forall ( (A Int) (B Int) (C Int) (D Int) (E Int) (F Int) (G Int) (H Int) (I Int) (J Int) (K Int) (L Int) (M Int) (N Int) (O Int) (P Int) (Q Int) (R Int) (S Int) (T Int) (U Int) ) 
    (=>
      (and
        (inv_main89 C H K U D G F E S T R A Q P B O N M L I J)
        true
      )
      CHC_COMP_FALSE
    )
  )
)
(assert
  (forall ( (A Int) (B Int) (C Int) (D Int) (E Int) (F Int) (G Int) (H Int) (I Int) (J Int) (K Int) (L Int) (M Int) (N Int) (O Int) (P Int) (Q Int) (R Int) (S Int) (T Int) (U Int) (V Int) (W Int) ) 
    (=>
      (and
        (inv_main96 D A C L T H F O E W M G K R Q U J I P S B N V)
        true
      )
      CHC_COMP_FALSE
    )
  )
)
(assert
  (forall ( (A Int) (B Int) (C Int) (D Int) (E Int) (F Int) (G Int) (H Int) (I Int) (J Int) (K Int) (L Int) (M Int) (N Int) (O Int) (P Int) (Q Int) (R Int) (S Int) (T Int) (U Int) ) 
    (=>
      (and
        (inv_main105 O I P M T J H G C S F K U N Q A E R L B D)
        true
      )
      CHC_COMP_FALSE
    )
  )
)
(assert
  (forall ( (A Int) (B Int) (C Int) (D Int) (E Int) (F Int) (G Int) (H Int) (I Int) (J Int) (K Int) (L Int) (M Int) (N Int) (O Int) (P Int) (Q Int) (R Int) (S Int) (T Int) (U Int) (V Int) (W Int) ) 
    (=>
      (and
        (inv_main112 T B Q M W K L N E G P A I R S H C J F O U V D)
        true
      )
      CHC_COMP_FALSE
    )
  )
)
(assert
  (forall ( (A Int) (B Int) (C Int) (D Int) (E Int) (F Int) (G Int) (H Int) (I Int) (J Int) (K Int) (L Int) (M Int) (N Int) (O Int) (P Int) ) 
    (=>
      (and
        (inv_main126 D E N B G M H C J P I F O A L K)
        true
      )
      CHC_COMP_FALSE
    )
  )
)
(assert
  (forall ( (A Int) (B Int) (C Int) (D Int) (E Int) (F Int) (G Int) (H Int) (I Int) (J Int) (K Int) (L Int) (M Int) (N Int) (O Int) (P Int) (Q Int) (R Int) ) 
    (=>
      (and
        (inv_main133 B G O J E R C F M Q I P H N K D L A)
        true
      )
      CHC_COMP_FALSE
    )
  )
)
(assert
  (forall ( (A Int) (B Int) (C Int) (D Int) (E Int) (F Int) (G Int) (H Int) (I Int) (J Int) (K Int) ) 
    (=>
      (and
        (inv_main146 K D E F C A I B J H G)
        true
      )
      CHC_COMP_FALSE
    )
  )
)
(assert
  (forall ( (A Int) (B Int) (C Int) (D Int) (E Int) (F Int) (G Int) (H Int) (I Int) (J Int) (K Int) (L Int) (M Int) (N Int) ) 
    (=>
      (and
        (inv_main161 J I N E H G A K M B L C D F)
        true
      )
      CHC_COMP_FALSE
    )
  )
)
(assert
  (forall ( (A Int) (B Int) (C Int) (D Int) (E Int) (F Int) (G Int) (H Int) (I Int) (J Int) (K Int) (L Int) (M Int) (N Int) (O Int) (P Int) ) 
    (=>
      (and
        (inv_main168 B E D I G N P J C L K H F O M A)
        true
      )
      CHC_COMP_FALSE
    )
  )
)
(assert
  (forall ( (A Int) (B Int) (C Int) (D Int) (E Int) (F Int) (G Int) (H Int) (I Int) (J Int) (K Int) (L Int) (M Int) (N Int) (O Int) ) 
    (=>
      (and
        (inv_main181 I N D M F A H E J O L K C B G)
        true
      )
      CHC_COMP_FALSE
    )
  )
)
(assert
  (forall ( (A Int) (B Int) (C Int) (D Int) (E Int) (F Int) (G Int) (H Int) (I Int) (J Int) (K Int) (L Int) (M Int) (N Int) (O Int) (P Int) (Q Int) ) 
    (=>
      (and
        (inv_main188 F C H Q M J E L I A G N D K P B O)
        true
      )
      CHC_COMP_FALSE
    )
  )
)
(assert
  (forall ( (CHC_COMP_UNUSED Bool) ) 
    (=>
      (and
        CHC_COMP_FALSE
      )
      false
    )
  )
)

(check-sat)
(exit)
